* #variable= 27 #constraint= 118
* converted from file: submitted/een/stein27.opb
min: +1000000000000000000000000*x0 +1000000000000000000000000*x1 +1000000000000000000000000*x2 +1000000000000000000000000*x3 +1000000000000000000000000*x4 +1000000000000000000000000*x5 +1000000000000000000000000*x6 +1000000000000000000000000*x7 +1000000000000000000000000*x8 +1000000000000000000000000*x9 +1000000000000000000000000*x10 +1000000000000000000000000*x11 +1000000000000000000000000*x12 +1000000000000000000000000*x13 +1000000000000000000000000*x14 +1000000000000000000000000*x15 +1000000000000000000000000*x16 +1000000000000000000000000*x17 +1000000000000000000000000*x18 +1000000000000000000000000*x19 +1000000000000000000000000*x20 +1000000000000000000000000*x21 +1000000000000000000000000*x22 +1000000000000000000000000*x23 +1000000000000000000000000*x24 +1000000000000000000000000*x25 +1000000000000000000000000*x26 ;
+1000000000000000000000000*x2 +1000000000000000000000000*x13 +1000000000000000000000000*x18 >= +1000000000000000000000000;
+1000000000000000000000000*x1 +1000000000000000000000000*x2 +1000000000000000000000000*x3 >= +1000000000000000000000000;
+1000000000000000000000000*x0 +1000000000000000000000000*x2 +1000000000000000000000000*x4 >= +1000000000000000000000000;
+1000000000000000000000000*x0 +1000000000000000000000000*x1 +1000000000000000000000000*x5 >= +1000000000000000000000000;
+1000000000000000000000000*x4 +1000000000000000000000000*x5 +1000000000000000000000000*x6 >= +1000000000000000000000000;
+1000000000000000000000000*x3 +1000000000000000000000000*x5 +1000000000000000000000000*x7 >= +1000000000000000000000000;
+1000000000000000000000000*x3 +1000000000000000000000000*x4 +1000000000000000000000000*x8 >= +1000000000000000000000000;
+1000000000000000000000000*x0 +1000000000000000000000000*x7 +1000000000000000000000000*x8 >= +1000000000000000000000000;
+1000000000000000000000000*x1 +1000000000000000000000000*x6 +1000000000000000000000000*x8 >= +1000000000000000000000000;
+1000000000000000000000000*x2 +1000000000000000000000000*x6 +1000000000000000000000000*x7 >= +1000000000000000000000000;
+1000000000000000000000000*x0 +1000000000000000000000000*x3 +1000000000000000000000000*x6 >= +1000000000000000000000000;
+1000000000000000000000000*x1 +1000000000000000000000000*x4 +1000000000000000000000000*x7 >= +1000000000000000000000000;
+1000000000000000000000000*x2 +1000000000000000000000000*x5 +1000000000000000000000000*x8 >= +1000000000000000000000000;
+1000000000000000000000000*x10 +1000000000000000000000000*x11 +1000000000000000000000000*x12 >= +1000000000000000000000000;
+1000000000000000000000000*x9 +1000000000000000000000000*x11 +1000000000000000000000000*x13 >= +1000000000000000000000000;
+1000000000000000000000000*x9 +1000000000000000000000000*x10 +1000000000000000000000000*x14 >= +1000000000000000000000000;
+1000000000000000000000000*x13 +1000000000000000000000000*x14 +1000000000000000000000000*x15 >= +1000000000000000000000000;
+1000000000000000000000000*x12 +1000000000000000000000000*x14 +1000000000000000000000000*x16 >= +1000000000000000000000000;
+1000000000000000000000000*x12 +1000000000000000000000000*x13 +1000000000000000000000000*x17 >= +1000000000000000000000000;
+1000000000000000000000000*x9 +1000000000000000000000000*x16 +1000000000000000000000000*x17 >= +1000000000000000000000000;
+1000000000000000000000000*x10 +1000000000000000000000000*x15 +1000000000000000000000000*x17 >= +1000000000000000000000000;
+1000000000000000000000000*x11 +1000000000000000000000000*x15 +1000000000000000000000000*x16 >= +1000000000000000000000000;
+1000000000000000000000000*x9 +1000000000000000000000000*x12 +1000000000000000000000000*x15 >= +1000000000000000000000000;
+1000000000000000000000000*x10 +1000000000000000000000000*x13 +1000000000000000000000000*x16 >= +1000000000000000000000000;
+1000000000000000000000000*x11 +1000000000000000000000000*x14 +1000000000000000000000000*x17 >= +1000000000000000000000000;
+1000000000000000000000000*x19 +1000000000000000000000000*x20 +1000000000000000000000000*x21 >= +1000000000000000000000000;
+1000000000000000000000000*x18 +1000000000000000000000000*x20 +1000000000000000000000000*x22 >= +1000000000000000000000000;
+1000000000000000000000000*x18 +1000000000000000000000000*x19 +1000000000000000000000000*x23 >= +1000000000000000000000000;
+1000000000000000000000000*x22 +1000000000000000000000000*x23 +1000000000000000000000000*x24 >= +1000000000000000000000000;
+1000000000000000000000000*x0 +1000000000000000000000000*x16 +1000000000000000000000000*x26 >= +1000000000000000000000000;
+1000000000000000000000000*x0 +1000000000000000000000000*x15 +1000000000000000000000000*x21 >= +1000000000000000000000000;
+1000000000000000000000000*x0 +1000000000000000000000000*x14 +1000000000000000000000000*x19 >= +1000000000000000000000000;
+1000000000000000000000000*x0 +1000000000000000000000000*x13 +1000000000000000000000000*x20 >= +1000000000000000000000000;
+1000000000000000000000000*x0 +1000000000000000000000000*x12 +1000000000000000000000000*x24 >= +1000000000000000000000000;
+1000000000000000000000000*x0 +1000000000000000000000000*x11 +1000000000000000000000000*x22 >= +1000000000000000000000000;
+1000000000000000000000000*x0 +1000000000000000000000000*x10 +1000000000000000000000000*x23 >= +1000000000000000000000000;
+1000000000000000000000000*x0 +1000000000000000000000000*x9 +1000000000000000000000000*x18 >= +1000000000000000000000000;
+1000000000000000000000000*x20 +1000000000000000000000000*x23 +1000000000000000000000000*x26 >= +1000000000000000000000000;
+1000000000000000000000000*x19 +1000000000000000000000000*x22 +1000000000000000000000000*x25 >= +1000000000000000000000000;
+1000000000000000000000000*x18 +1000000000000000000000000*x21 +1000000000000000000000000*x24 >= +1000000000000000000000000;
+1000000000000000000000000*x20 +1000000000000000000000000*x24 +1000000000000000000000000*x25 >= +1000000000000000000000000;
+1000000000000000000000000*x19 +1000000000000000000000000*x24 +1000000000000000000000000*x26 >= +1000000000000000000000000;
+1000000000000000000000000*x18 +1000000000000000000000000*x25 +1000000000000000000000000*x26 >= +1000000000000000000000000;
+1000000000000000000000000*x21 +1000000000000000000000000*x22 +1000000000000000000000000*x26 >= +1000000000000000000000000;
+1000000000000000000000000*x0 +1000000000000000000000000*x17 +1000000000000000000000000*x25 >= +1000000000000000000000000;
+1000000000000000000000000*x1 +1000000000000000000000000*x9 +1000000000000000000000000*x23 >= +1000000000000000000000000;
+1000000000000000000000000*x1 +1000000000000000000000000*x10 +1000000000000000000000000*x19 >= +1000000000000000000000000;
+1000000000000000000000000*x1 +1000000000000000000000000*x11 +1000000000000000000000000*x21 >= +1000000000000000000000000;
+1000000000000000000000000*x1 +1000000000000000000000000*x12 +1000000000000000000000000*x20 >= +1000000000000000000000000;
+1000000000000000000000000*x1 +1000000000000000000000000*x13 +1000000000000000000000000*x25 >= +1000000000000000000000000;
+1000000000000000000000000*x1 +1000000000000000000000000*x14 +1000000000000000000000000*x18 >= +1000000000000000000000000;
+1000000000000000000000000*x1 +1000000000000000000000000*x15 +1000000000000000000000000*x26 >= +1000000000000000000000000;
+1000000000000000000000000*x1 +1000000000000000000000000*x16 +1000000000000000000000000*x22 >= +1000000000000000000000000;
+1000000000000000000000000*x1 +1000000000000000000000000*x17 +1000000000000000000000000*x24 >= +1000000000000000000000000;
+1000000000000000000000000*x2 +1000000000000000000000000*x9 +1000000000000000000000000*x22 >= +1000000000000000000000000;
+1000000000000000000000000*x2 +1000000000000000000000000*x10 +1000000000000000000000000*x21 >= +1000000000000000000000000;
+1000000000000000000000000*x2 +1000000000000000000000000*x11 +1000000000000000000000000*x20 >= +1000000000000000000000000;
+1000000000000000000000000*x2 +1000000000000000000000000*x12 +1000000000000000000000000*x19 >= +1000000000000000000000000;
+1000000000000000000000000*x2 +1000000000000000000000000*x14 +1000000000000000000000000*x26 >= +1000000000000000000000000;
+1000000000000000000000000*x2 +1000000000000000000000000*x15 +1000000000000000000000000*x25 >= +1000000000000000000000000;
+1000000000000000000000000*x2 +1000000000000000000000000*x16 +1000000000000000000000000*x24 >= +1000000000000000000000000;
+1000000000000000000000000*x2 +1000000000000000000000000*x17 +1000000000000000000000000*x23 >= +1000000000000000000000000;
+1000000000000000000000000*x3 +1000000000000000000000000*x9 +1000000000000000000000000*x24 >= +1000000000000000000000000;
+1000000000000000000000000*x3 +1000000000000000000000000*x10 +1000000000000000000000000*x20 >= +1000000000000000000000000;
+1000000000000000000000000*x3 +1000000000000000000000000*x11 +1000000000000000000000000*x19 >= +1000000000000000000000000;
+1000000000000000000000000*x3 +1000000000000000000000000*x12 +1000000000000000000000000*x21 >= +1000000000000000000000000;
+1000000000000000000000000*x3 +1000000000000000000000000*x13 +1000000000000000000000000*x26 >= +1000000000000000000000000;
+1000000000000000000000000*x3 +1000000000000000000000000*x14 +1000000000000000000000000*x25 >= +1000000000000000000000000;
+1000000000000000000000000*x3 +1000000000000000000000000*x15 +1000000000000000000000000*x18 >= +1000000000000000000000000;
+1000000000000000000000000*x3 +1000000000000000000000000*x16 +1000000000000000000000000*x23 >= +1000000000000000000000000;
+1000000000000000000000000*x3 +1000000000000000000000000*x17 +1000000000000000000000000*x22 >= +1000000000000000000000000;
+1000000000000000000000000*x4 +1000000000000000000000000*x9 +1000000000000000000000000*x20 >= +1000000000000000000000000;
+1000000000000000000000000*x4 +1000000000000000000000000*x10 +1000000000000000000000000*x25 >= +1000000000000000000000000;
+1000000000000000000000000*x4 +1000000000000000000000000*x11 +1000000000000000000000000*x18 >= +1000000000000000000000000;
+1000000000000000000000000*x4 +1000000000000000000000000*x12 +1000000000000000000000000*x26 >= +1000000000000000000000000;
+1000000000000000000000000*x4 +1000000000000000000000000*x13 +1000000000000000000000000*x22 >= +1000000000000000000000000;
+1000000000000000000000000*x4 +1000000000000000000000000*x14 +1000000000000000000000000*x24 >= +1000000000000000000000000;
+1000000000000000000000000*x4 +1000000000000000000000000*x15 +1000000000000000000000000*x23 >= +1000000000000000000000000;
+1000000000000000000000000*x4 +1000000000000000000000000*x16 +1000000000000000000000000*x19 >= +1000000000000000000000000;
+1000000000000000000000000*x4 +1000000000000000000000000*x17 +1000000000000000000000000*x21 >= +1000000000000000000000000;
+1000000000000000000000000*x5 +1000000000000000000000000*x9 +1000000000000000000000000*x19 >= +1000000000000000000000000;
+1000000000000000000000000*x5 +1000000000000000000000000*x10 +1000000000000000000000000*x18 >= +1000000000000000000000000;
+1000000000000000000000000*x5 +1000000000000000000000000*x11 +1000000000000000000000000*x26 >= +1000000000000000000000000;
+1000000000000000000000000*x5 +1000000000000000000000000*x12 +1000000000000000000000000*x25 >= +1000000000000000000000000;
+1000000000000000000000000*x5 +1000000000000000000000000*x13 +1000000000000000000000000*x24 >= +1000000000000000000000000;
+1000000000000000000000000*x5 +1000000000000000000000000*x14 +1000000000000000000000000*x23 >= +1000000000000000000000000;
+1000000000000000000000000*x5 +1000000000000000000000000*x15 +1000000000000000000000000*x22 >= +1000000000000000000000000;
+1000000000000000000000000*x21 +1000000000000000000000000*x23 +1000000000000000000000000*x25 >= +1000000000000000000000000;
+1000000000000000000000000*x5 +1000000000000000000000000*x16 +1000000000000000000000000*x21 >= +1000000000000000000000000;
+1000000000000000000000000*x5 +1000000000000000000000000*x17 +1000000000000000000000000*x20 >= +1000000000000000000000000;
+1000000000000000000000000*x6 +1000000000000000000000000*x9 +1000000000000000000000000*x21 >= +1000000000000000000000000;
+1000000000000000000000000*x6 +1000000000000000000000000*x10 +1000000000000000000000000*x26 >= +1000000000000000000000000;
+1000000000000000000000000*x6 +1000000000000000000000000*x11 +1000000000000000000000000*x25 >= +1000000000000000000000000;
+1000000000000000000000000*x6 +1000000000000000000000000*x12 +1000000000000000000000000*x18 >= +1000000000000000000000000;
+1000000000000000000000000*x6 +1000000000000000000000000*x13 +1000000000000000000000000*x23 >= +1000000000000000000000000;
+1000000000000000000000000*x6 +1000000000000000000000000*x14 +1000000000000000000000000*x22 >= +1000000000000000000000000;
+1000000000000000000000000*x6 +1000000000000000000000000*x15 +1000000000000000000000000*x24 >= +1000000000000000000000000;
+1000000000000000000000000*x6 +1000000000000000000000000*x16 +1000000000000000000000000*x20 >= +1000000000000000000000000;
+1000000000000000000000000*x6 +1000000000000000000000000*x17 +1000000000000000000000000*x19 >= +1000000000000000000000000;
+1000000000000000000000000*x7 +1000000000000000000000000*x9 +1000000000000000000000000*x26 >= +1000000000000000000000000;
+1000000000000000000000000*x7 +1000000000000000000000000*x10 +1000000000000000000000000*x22 >= +1000000000000000000000000;
+1000000000000000000000000*x7 +1000000000000000000000000*x11 +1000000000000000000000000*x24 >= +1000000000000000000000000;
+1000000000000000000000000*x8 +1000000000000000000000000*x17 +1000000000000000000000000*x26 >= +1000000000000000000000000;
+1000000000000000000000000*x8 +1000000000000000000000000*x16 +1000000000000000000000000*x18 >= +1000000000000000000000000;
+1000000000000000000000000*x8 +1000000000000000000000000*x15 +1000000000000000000000000*x19 >= +1000000000000000000000000;
+1000000000000000000000000*x8 +1000000000000000000000000*x14 +1000000000000000000000000*x20 >= +1000000000000000000000000;
+1000000000000000000000000*x8 +1000000000000000000000000*x13 +1000000000000000000000000*x21 >= +1000000000000000000000000;
+1000000000000000000000000*x8 +1000000000000000000000000*x12 +1000000000000000000000000*x22 >= +1000000000000000000000000;
+1000000000000000000000000*x8 +1000000000000000000000000*x11 +1000000000000000000000000*x23 >= +1000000000000000000000000;
+1000000000000000000000000*x8 +1000000000000000000000000*x10 +1000000000000000000000000*x24 >= +1000000000000000000000000;
+1000000000000000000000000*x8 +1000000000000000000000000*x9 +1000000000000000000000000*x25 >= +1000000000000000000000000;
+1000000000000000000000000*x7 +1000000000000000000000000*x17 +1000000000000000000000000*x18 >= +1000000000000000000000000;
+1000000000000000000000000*x7 +1000000000000000000000000*x16 +1000000000000000000000000*x25 >= +1000000000000000000000000;
+1000000000000000000000000*x7 +1000000000000000000000000*x15 +1000000000000000000000000*x20 >= +1000000000000000000000000;
+1000000000000000000000000*x7 +1000000000000000000000000*x14 +1000000000000000000000000*x21 >= +1000000000000000000000000;
+1000000000000000000000000*x7 +1000000000000000000000000*x13 +1000000000000000000000000*x19 >= +1000000000000000000000000;
+1000000000000000000000000*x7 +1000000000000000000000000*x12 +1000000000000000000000000*x23 >= +1000000000000000000000000;
+1000000000000000000000000*x0 +1000000000000000000000000*x1 +1000000000000000000000000*x2 +1000000000000000000000000*x3 +1000000000000000000000000*x4 +1000000000000000000000000*x5 +1000000000000000000000000*x6 +1000000000000000000000000*x7 +1000000000000000000000000*x8 +1000000000000000000000000*x9 +1000000000000000000000000*x10 +1000000000000000000000000*x11 +1000000000000000000000000*x12 +1000000000000000000000000*x13 +1000000000000000000000000*x14 +1000000000000000000000000*x15 +1000000000000000000000000*x16 +1000000000000000000000000*x17 +1000000000000000000000000*x18 +1000000000000000000000000*x19 +1000000000000000000000000*x20 +1000000000000000000000000*x21 +1000000000000000000000000*x22 +1000000000000000000000000*x23 +1000000000000000000000000*x24 +1000000000000000000000000*x25 +1000000000000000000000000*x26 >= +13000000000000000000000000;
